Problem:    
Rows:       18
Columns:    63 (63 integer, 63 binary)
Non-zeros:  203
Status:     INTEGER OPTIMAL
Objective:  score = 4182 (MAXimum)

   No.   Row name        Activity     Lower bound   Upper bound
------ ------------    ------------- ------------- -------------
     1 index_0                     4             0               
     2 index_1                     2             0               
     3 index_2                     0             0               
     4 index_3                    12             0               
     5 index_4                     2             0               
     6 index_5                     1             0               
     7 index_6                     3             0               
     8 index_7                     0             0               
     9 index_8                     4             0               
    10 index_9                     0             0               
    11 index_10                    4             0               
    12 index_11                    1             0               
    13 index_12                   16             0               
    14 index_13                    0             0               
    15 index_14                    3             0               
    16 index_15                    4             0               
    17 index_16                    1             0               
    18 length                    976                        1948 

   No. Column name       Activity     Lower bound   Upper bound
------ ------------    ------------- ------------- -------------
     1 c0           *              1             0             1 
     2 c1           *              1             0             1 
     3 c2           *              1             0             1 
     4 c3           *              1             0             1 
     5 c4           *              1             0             1 
     6 c5           *              1             0             1 
     7 c6           *              1             0             1 
     8 c7           *              1             0             1 
     9 c8           *              1             0             1 
    10 c9           *              1             0             1 
    11 c10          *              1             0             1 
    12 c11          *              1             0             1 
    13 c12          *              1             0             1 
    14 c13          *              1             0             1 
    15 c14          *              1             0             1 
    16 c15          *              1             0             1 
    17 c16          *              1             0             1 
    18 s36          *              1             0             1 
    19 s42          *              0             0             1 
    20 s16          *              1             0             1 
    21 s21          *              0             0             1 
    22 s24          *              0             0             1 
    23 s26          *              0             0             1 
    24 s28          *              0             0             1 
    25 s41          *              0             0             1 
    26 s25          *              0             0             1 
    27 s39          *              0             0             1 
    28 s14          *              1             0             1 
    29 s7           *              0             0             1 
    30 s31          *              0             0             1 
    31 s45          *              0             0             1 
    32 s0           *              0             0             1 
    33 s1           *              1             0             1 
    34 s2           *              0             0             1 
    35 s4           *              0             0             1 
    36 s5           *              0             0             1 
    37 s6           *              0             0             1 
    38 s10          *              0             0             1 
    39 s11          *              0             0             1 
    40 s18          *              0             0             1 
    41 s8           *              1             0             1 
    42 s9           *              0             0             1 
    43 s22          *              0             0             1 
    44 s27          *              0             0             1 
    45 s29          *              0             0             1 
    46 s30          *              0             0             1 
    47 s32          *              0             0             1 
    48 s37          *              0             0             1 
    49 s38          *              0             0             1 
    50 s43          *              0             0             1 
    51 s44          *              0             0             1 
    52 s12          *              0             0             1 
    53 s13          *              0             0             1 
    54 s34          *              0             0             1 
    55 s3           *              0             0             1 
    56 s15          *              0             0             1 
    57 s17          *              0             0             1 
    58 s19          *              0             0             1 
    59 s20          *              0             0             1 
    60 s23          *              0             0             1 
    61 s33          *              0             0             1 
    62 s35          *              0             0             1 
    63 s40          *              0             0             1 

Integer feasibility conditions:

KKT.PE: max.abs.err = 0.00e+00 on row 0
        max.rel.err = 0.00e+00 on row 0
        High quality

KKT.PB: max.abs.err = 0.00e+00 on row 0
        max.rel.err = 0.00e+00 on row 0
        High quality

End of output
